p cnf 7230 15
-1564 -3396 -3402 -3408 3872 0
1564 -3873 0
3396 -3873 0
3402 -3873 0
-3875 3877 0
3876 -3877 0
3874 -3876 0
-3422 3875 0
3422 -3874 0
-3872 3873 0
-3418 3871 0
3870 -3871 0
3418 -3870 0
3408 -3873 0
3454 -3879 0
